100	22	4	52	
14	6	15	8

0	0	0	0	0	0	3	1	2	3
1	0	0	2	0	6	1	12
2	9	0	0	0	3	1	4
3	0	0	10	0	8	2	8	11
4	0	0	7	0	9	1	5
5	0	0	0	6	5	1	6
6	0	0	0	5	7	2	7	20
7	0	2	0	0	2	3	8	9	12
8	0	0	8	0	2	1	10
9	8	0	0	0	10	1	11
10	0	0	3	0	7	1	13
11	0	0	1	0	4	1	14
12	6	0	0	0	10	1	15
13	4	0	0	0	1	1	19
14	0	0	5	0	4	1	16
15	0	0	0	6	4	1	17
16	10	0	0	0	1	1	18
17	3	0	0	0	4	1	21
18	0	0	0	7	7	1	21
19	0	0	6	0	2	1	21
20	0	0	0	2	4	1	21
21	0	0	0	0	0	0
